540
2222
1909
3971
8072
1169
4556
9174
9994
4519
8033
400
2545
2438
7305
6023
6812
8830
4939
2517
4799
3262
3428
904
7170
1584
7645
5344
9120
6357
7816
9796
2226
5448
7553
9574
7632
1663
9791
8324
6601
8656
3169
8132
4489
9917
2798
3082
3745
9565
633
